105851
0,9,28,63,72,44,45,53,79,61,69,13,66,75,25,35,65,70,19,8,76,57,16,55,6,26,32,39,73,31,81,74,10,15,37,34,29,1,50,71,80,42,59,46,48,33,56,2,11,22,54,41,5,60,14,24,68,77,40,51,38,62,3,49,64,52,82,78,27,7,58,67,43,21,4,18,30,23,47,20,12,17,36,0